20
1
2
2
3
3
4
7
5
6
5
6
12
1
14
8
14
6
13
4
10
9
7
14
11
4
3
8
10
9
10
17
3
1
5
18
8
9
4
11
9
15
15
13
6
12
16
19
19
7
11
16
10
19
15
12
1
20
18
16
17
2
8
9
17
2
2
13
15
13
18
